c transitions.cnf
c
p cnf 12 442
2 3 4 5 6 7 0 
-1 -2 4 5 6 7 0 
1 -2 -7 0 
-4 -2 -7 0 
-5 -2 -7 0 
-6 -2 -7 0 
1 -3 -7 0 
2 -3 -7 0 
-4 -3 -7 0 
-5 -3 -7 0 
-6 -3 -7 0 
1 -4 -7 0 
2 -4 -7 0 
-4 -7 0 
-5 -4 -7 0 
-6 -4 -7 0 
1 -5 -7 0 
2 -5 -7 0 
-5 -7 0 
-6 -5 -7 0 
1 -6 -7 0 
2 -6 -7 0 
-6 -7 0 
-2 -3 -4 5 6 8 0 
-1 3 4 5 6 8 0 
-1 -2 4 5 6 8 0 
1 2 -8 0 
-3 2 1 -8 0 
-4 2 1 -8 0 
-5 2 1 -8 0 
-6 2 1 -8 0 
1 3 -8 0 
-4 3 1 -8 0 
-5 3 1 -8 0 
-6 3 1 -8 0 
1 4 -8 0 
-3 4 1 -8 0 
-5 4 1 -8 0 
-6 4 1 -8 0 
1 -5 -8 0 
-3 -5 1 -8 0 
-4 -5 1 -8 0 
-6 -5 1 -8 0 
1 -6 -8 0 
-3 -6 1 -8 0 
-4 -6 1 -8 0 
-3 2 -8 0 
-4 2 -8 0 
-5 2 -8 0 
-6 2 -8 0 
1 3 2 -8 0 
-4 3 2 -8 0 
-5 3 2 -8 0 
-6 3 2 -8 0 
1 4 2 -8 0 
-3 4 2 -8 0 
-5 4 2 -8 0 
-6 4 2 -8 0 
1 -5 2 -8 0 
-3 -5 2 -8 0 
-4 -5 2 -8 0 
-6 -5 2 -8 0 
1 -6 2 -8 0 
-3 -6 2 -8 0 
-4 -6 2 -8 0 
1 2 -4 -8 0 
-3 2 -4 -8 0 
-5 2 -4 -8 0 
-6 2 -4 -8 0 
1 3 -4 -8 0 
-4 3 -8 0 
-5 3 -4 -8 0 
-6 3 -4 -8 0 
1 -5 -4 -8 0 
-3 -5 -4 -8 0 
-4 -5 -8 0 
-6 -5 -4 -8 0 
1 -6 -4 -8 0 
-3 -6 -4 -8 0 
-4 -6 -8 0 
1 2 -5 -8 0 
-3 2 -5 -8 0 
-4 2 -5 -8 0 
-6 2 -5 -8 0 
1 3 -5 -8 0 
-4 3 -5 -8 0 
-5 3 -8 0 
-6 3 -5 -8 0 
1 4 -5 -8 0 
-3 4 -5 -8 0 
-5 4 -8 0 
-6 4 -5 -8 0 
-3 -5 -8 0 
-5 -8 0 
-6 -5 -8 0 
1 -6 -5 -8 0 
-3 -6 -5 -8 0 
-4 -6 -5 -8 0 
1 2 -6 -8 0 
-3 2 -6 -8 0 
-4 2 -6 -8 0 
-5 2 -6 -8 0 
1 3 -6 -8 0 
-4 3 -6 -8 0 
-5 3 -6 -8 0 
-6 3 -8 0 
1 4 -6 -8 0 
-3 4 -6 -8 0 
-5 4 -6 -8 0 
-6 4 -8 0 
1 -5 -6 -8 0 
-3 -5 -6 -8 0 
-4 -5 -6 -8 0 
-3 -6 -8 0 
-6 -8 0 
1 2 -3 -4 -6 9 0 
1 -3 -4 -5 6 9 0 
-2 -3 -4 5 6 9 0 
-1 -2 4 5 6 9 0 
3 2 1 -9 0 
4 3 2 1 -9 0 
5 3 2 1 -9 0 
-6 3 2 1 -9 0 
4 2 1 -9 0 
5 4 2 1 -9 0 
-6 4 2 1 -9 0 
3 6 2 1 -9 0 
4 6 2 1 -9 0 
5 6 2 1 -9 0 
3 -2 1 -9 0 
4 -2 3 1 -9 0 
5 -2 3 1 -9 0 
-6 -2 3 1 -9 0 
3 1 -9 0 
4 3 1 -9 0 
5 3 1 -9 0 
-6 3 1 -9 0 
5 4 3 1 -9 0 
-6 4 3 1 -9 0 
3 6 1 -9 0 
4 6 3 1 -9 0 
5 6 3 1 -9 0 
3 -2 4 1 -9 0 
4 -2 1 -9 0 
5 -2 4 1 -9 0 
-6 -2 4 1 -9 0 
5 3 4 1 -9 0 
-6 3 4 1 -9 0 
4 1 -9 0 
5 4 1 -9 0 
-6 4 1 -9 0 
3 6 4 1 -9 0 
4 6 1 -9 0 
5 6 4 1 -9 0 
3 -2 -5 1 -9 0 
4 -2 -5 1 -9 0 
-6 -2 -5 1 -9 0 
3 -5 1 -9 0 
4 3 -5 1 -9 0 
-6 3 -5 1 -9 0 
4 -5 1 -9 0 
-6 4 -5 1 -9 0 
3 6 -5 1 -9 0 
4 6 -5 1 -9 0 
3 -2 -6 1 -9 0 
4 -2 -6 1 -9 0 
5 -2 -6 1 -9 0 
-6 -2 1 -9 0 
4 3 -6 1 -9 0 
5 3 -6 1 -9 0 
5 4 -6 1 -9 0 
-1 2 -9 0 
3 -1 2 -9 0 
4 -1 2 -9 0 
5 -1 2 -9 0 
-6 -1 2 -9 0 
3 2 -9 0 
4 3 2 -9 0 
5 3 2 -9 0 
-6 3 2 -9 0 
4 2 -9 0 
5 4 2 -9 0 
-6 4 2 -9 0 
-1 6 2 -9 0 
3 6 2 -9 0 
4 6 2 -9 0 
5 6 2 -9 0 
4 -1 3 2 -9 0 
5 -1 3 2 -9 0 
-6 -1 3 2 -9 0 
5 4 3 2 -9 0 
-6 4 3 2 -9 0 
-1 6 3 2 -9 0 
4 6 3 2 -9 0 
5 6 3 2 -9 0 
3 -1 4 2 -9 0 
5 -1 4 2 -9 0 
-6 -1 4 2 -9 0 
5 3 4 2 -9 0 
-6 3 4 2 -9 0 
-1 6 4 2 -9 0 
3 6 4 2 -9 0 
5 6 4 2 -9 0 
-1 -5 2 -9 0 
3 -1 -5 2 -9 0 
4 -1 -5 2 -9 0 
-6 -1 -5 2 -9 0 
3 -5 2 -9 0 
4 3 -5 2 -9 0 
-6 3 -5 2 -9 0 
4 -5 2 -9 0 
-6 4 -5 2 -9 0 
-1 6 -5 2 -9 0 
3 6 -5 2 -9 0 
4 6 -5 2 -9 0 
3 -1 -6 2 -9 0 
4 -1 -6 2 -9 0 
5 -1 -6 2 -9 0 
4 3 -6 2 -9 0 
5 3 -6 2 -9 0 
5 4 -6 2 -9 0 
-1 2 -4 -9 0 
3 -1 2 -4 -9 0 
5 -1 2 -4 -9 0 
-6 -1 2 -4 -9 0 
3 2 -4 -9 0 
5 3 2 -4 -9 0 
-6 3 2 -4 -9 0 
-1 6 2 -4 -9 0 
3 6 2 -4 -9 0 
5 6 2 -4 -9 0 
-1 3 -4 -9 0 
5 -1 3 -4 -9 0 
-6 -1 3 -4 -9 0 
-1 -2 3 -4 -9 0 
3 -2 -4 -9 0 5 
-2 3 -4 -9 0 
-6 -2 3 -4 -9 0 
3 -4 -9 0 
5 3 -4 -9 0 
-6 3 -4 -9 0 
-1 6 3 -4 -9 0 
3 6 -4 -9 0 
5 6 3 -4 -9 0 
-1 -5 -4 -9 0 
3 -1 -5 -4 -9 0 
-6 -1 -5 -4 -9 0 
-1 -2 -5 -4 -9 0 
3 -2 -5 -4 -9 0 
-6 -2 -5 -4 -9 0 
3 -5 -4 -9 0 
-6 3 -5 -4 -9 0 
-1 6 -5 -4 -9 0 
3 6 -5 -4 -9 0 
-1 -6 -4 -9 0 
3 -1 -6 -4 -9 0 
5 -1 -6 -4 -9 0 
-1 -2 -6 -4 -9 0 
3 -2 -6 -4 -9 0 
5 -2 -6 -4 -9 0 
-6 -2 -4 -9 0 
5 3 -6 -4 -9 0 
-1 2 -5 -9 0 
3 -1 2 -5 -9 0 
4 -1 2 -5 -9 0 
-6 -1 2 -5 -9 0 
3 2 -5 -9 0 
4 3 2 -5 -9 0 
-6 3 2 -5 -9 0 
4 2 -5 -9 0 
-6 4 2 -5 -9 0 
-1 6 2 -5 -9 0 
3 6 2 -5 -9 0 
4 6 2 -5 -9 0 
-1 3 -5 -9 0 
4 -1 3 -5 -9 0 
-6 -1 3 -5 -9 0 
-1 -2 3 -5 -9 0 
3 -2 -5 -9 0 
4 -2 3 -5 -9 0 
-6 -2 3 -5 -9 0 
3 -5 -9 0 
4 3 -5 -9 0 
-6 3 -5 -9 0 
-6 4 3 -5 -9 0 
-1 6 3 -5 -9 0 
3 6 -5 -9 0 
4 6 3 -5 -9 0 
-1 4 -5 -9 0 
3 -1 4 -5 -9 0 
-6 -1 4 -5 -9 0 
-1 -2 4 -5 -9 0 
3 -2 4 -5 -9 0 
4 -2 -5 -9 0 
-6 -2 4 -5 -9 0 
-6 3 4 -5 -9 0 
4 -5 -9 0 
-6 4 -5 -9 0 
-1 6 4 -5 -9 0 
3 6 4 -5 -9 0 
4 6 -5 -9 0 
-1 -5 -9 0 
-6 -1 -5 -9 0 
-1 -2 -5 -9 0 
-6 -2 -5 -9 0 
-1 6 -5 -9 0 
3 -1 -6 -5 -9 0 
4 -1 -6 -5 -9 0 
-1 -2 -6 -5 -9 0 
3 -2 -6 -5 -9 0 
4 -2 -6 -5 -9 0 
4 3 -6 -5 -9 0 
-1 2 -6 -9 0 
3 -1 2 -6 -9 0 
4 -1 2 -6 -9 0 
5 -1 2 -6 -9 0 
3 2 -6 -9 0 
4 3 2 -6 -9 0 
5 3 2 -6 -9 0 
4 2 -6 -9 0 
5 4 2 -6 -9 0 
-1 3 -6 -9 0 
4 -1 3 -6 -9 0 
5 -1 3 -6 -9 0 
-6 -1 3 -9 0 
-1 -2 3 -6 -9 0 
3 -2 -6 -9 0 
4 -2 3 -6 -9 0 
5 -2 3 -6 -9 0 
-6 -2 3 -9 0 
3 -6 -9 0 
4 3 -6 -9 0 
5 3 -6 -9 0 
5 4 3 -6 -9 0 
-6 4 3 -9 0 
-1 4 -6 -9 0 
3 -1 4 -6 -9 0 
5 -1 4 -6 -9 0 
-6 -1 4 -9 0 
-1 -2 4 -6 -9 0 
3 -2 4 -6 -9 0 
4 -2 -6 -9 0 
5 -2 4 -6 -9 0 
-6 -2 4 -9 0 
5 3 4 -6 -9 0 
-6 3 4 -9 0 
4 -6 -9 0 
5 4 -6 -9 0 
-1 -5 -6 -9 0 
3 -1 -5 -6 -9 0 
4 -1 -5 -6 -9 0 
-1 -2 -5 -6 -9 0 
3 -2 -5 -6 -9 0 
4 -2 -5 -6 -9 0 
3 -5 -6 -9 0 
4 3 -5 -6 -9 0 
4 -5 -6 -9 0 
-1 -6 -9 0 
5 -1 -6 -9 0 
-1 -2 -6 -9 0 
5 -2 -6 -9 0 
-6 -2 -9 0 
1 2 -3 -4 10 0 
1 -3 -4 6 10 0 
-1 -2 -3 5 6 10 0 
3 -2 1 -10 0 
4 -2 1 -10 0 
-6 -2 1 -10 0 
3 1 -10 0 
4 3 1 -10 0 
-6 3 1 -10 0 
4 1 -10 0 
-6 4 1 -10 0 
-1 2 -10 0 
3 -1 2 -10 0 
4 -1 2 -10 0 
-6 -1 2 -10 0 
3 2 -10 0 
4 3 2 -10 0 
-6 3 2 -10 0 
4 2 -10 0 
-6 4 2 -10 0 
-1 3 -10 0 
4 -1 3 -10 0 
-6 -1 3 -10 0 
-1 -2 3 -10 0 
3 -2 -10 0 
4 -2 3 -10 0 
-6 -2 3 -10 0 
3 -10 0 
4 3 -10 0 
-6 3 -10 0 
-6 4 3 -10 0 
-1 -5 -10 0 
3 -1 -5 -10 0 
4 -1 -5 -10 0 
-6 -1 -5 -10 0 
-1 -2 -5 -10 0 
3 -2 -5 -10 0 
4 -2 -5 -10 0 
-6 -2 -5 -10 0 
3 -5 -10 0 
4 3 -5 -10 0 
-6 3 -5 -10 0 
4 -5 -10 0 
-6 4 -5 -10 0 
-1 -6 -10 0 
3 -1 -6 -10 0 
4 -1 -6 -10 0 
-1 -2 -6 -10 0 
3 -2 -6 -10 0 
4 -2 -6 -10 0 
-6 -2 -10 0 
4 3 -6 -10 0 
4 -6 -10 0 
1 -3 -4 -5 6 11 0 
1 -2 -3 -4 6 11 0 
-1 -11 0 
2 -1 -11 0 
3 -1 -11 0 
4 -1 -11 0 
-6 -1 -11 0 
2 3 -11 0 
3 -11 0 
4 3 -11 0 
-6 3 -11 0 
2 4 -11 0 
4 -11 0 
-6 4 -11 0 
-1 5 -11 0 
2 5 -11 0 
3 5 -11 0 
4 5 -11 0 
-6 5 -11 0 
2 -6 -11 0 
-6 -11 0 
1 2 -3 -4 -5 12 0 
-12 -1 0 
-12 -2 0 
-12 3 0 
-12 4 0 
-12 5 0